Please solve the following SAT Problem encoded in DIMACS format, only return a single solution assignment without explanations, if there is any: 
p cnf 5 16
5 -1 4 0
-3 4 1 0
1 -3 -2 0
-2 1 5 0
2 1 5 0
-1 -2 5 0
3 4 2 0
5 -2 -1 0
3 4 -2 0
-3 4 1 0
-2 3 1 0
-2 5 3 0
1 -4 -3 0
1 5 4 0
5 2 1 0
1 4 -3 0

